n = 2;
m = 2;
num_of_regions = 7;
regions_max_size = 3;

regions = [|
6, 3, 1,1, 2,1, 3,1, |
7, 2, 1,2, 1,3, 0,0, |
5, 2, 1,4, 2,4, 0,0, |
5, 2, 2,2, 2,3, 0,0, |
5, 2, 3,2, 3,3, 0,0, |
6, 3, 3,4, 4,3, 4,4, |
6, 2, 4,1, 4,2, 0,0, |];